NAME : TW_40_seed_None_id_9
TYPE : CVRPTW
DIMENSION : 11
EDGE_WEIGHT_TYPE : EUC_2D
CAPACITY : 25
SERVICE_TIME : 100
LATE_COEFF : 0
NODE_COORD_SECTION
1	966	650
2	921	65
3	676	937
4	695	884
5	834	479
6	86	315
7	749	771
8	621	99
9	10	617
10	352	457
11	150	537
DEMAND_SECTION
1	0
2	6
3	6
4	7
5	10
6	10
7	6
8	5
9	7
10	9
11	2
TIME_WINDOW_SECTION
1	0	10000
2	1584	3537
3	2226	4229
4	5675	7647
5	4670	6661
6	0	1545
7	4414	6429
8	5499	7534
9	5650	7533
10	6559	8448
11	5384	7289
DEPOT_SECTION
1
-1
EOF
